(set-logic QF_BV)
(declare-fun _substvar_248_ () (_ BitVec 64))
(declare-fun _substvar_274_ () (_ BitVec 64))
(declare-fun _substvar_103_ () (_ BitVec 64))
(assert (= true (bvslt _substvar_103_ (_ bv0 64))))
(assert (= _substvar_274_ (bvsub _substvar_103_ (_ bv0 64))))
(assert (= (_ bv0 64) (bvudiv _substvar_274_ _substvar_248_)))
(check-sat)
(exit)
